// FEASIBLE
// COST 365
nNurses=365;
minHours=1;
maxPresence=12;
maxHours=10;
maxConsec=6;
hoursDay=24;
demand=[121 126 126 124 118 114 114 118 120 118 118 122 120 115 117 128 126 119 124 116 109 115 122 120];
